networks/zoo_8_12/zoo_8_12-lower.txt
Number of groups: 6
Flow 5: {2 3 0} {3 7 0} 
Flow 6: {2 1 0} {1 4 0} {4 8 0} 
Flow 7: {3 1 0} {1 5 0} 
Flow 8: {3 2 0} {2 6 0} 
Flow 11: {4 1 0} {1 2 0} 
Flow 12: {1 3 0} 
Time taken running everything: 0 seconds
