networks/zoo_8_12/zoo_8_12-lower.sol
<?xml version = "1.0" encoding="UTF-8" standalone="yes"?>
<CPLEXSolution version="1.2">
 <header
   problemName="networks/zoo_8_12/zoo_8_12-lower.lp"
   solutionName="incumbent"
   solutionIndex="-1"
   objectiveValue="4"
   solutionTypeValue="3"
   solutionTypeString="primal"
   solutionStatusValue="101"
   solutionStatusString="integer optimal solution"
   solutionMethodString="mip"
   primalFeasible="1"
   dualFeasible="1"
   MIPNodes="0"
   MIPIterations="0"
   writeLevel="3"/>
 <quality
   epInt="1.0000000000000001e-05"
   epRHS="9.9999999999999995e-07"
   maxIntInfeas="0"
   maxPrimalInfeas="0"
   maxX="1"
   maxSlack="1"/>
 <variables>
  <variable name="Y(1,2)" index="1" value="1"/>
  <variable name="Y(2,3)" index="10" value="1"/>
  <variable name="Y(3,4)" index="19" value="1"/>
  <variable name="Y(4,1)" index="24" value="1"/>
  <variable name="X(1,2,1)" index="96" value="1"/>
  <variable name="X(1,3,2)" index="109" value="1"/>
  <variable name="X(1,4,3)" index="122" value="1"/>
  <variable name="X(1,5,4)" index="135" value="1"/>
  <variable name="X(2,1,4)" index="147" value="1"/>
  <variable name="X(2,3,5)" index="160" value="1"/>
  <variable name="X(2,6,1)" index="168" value="1"/>
  <variable name="X(3,1,7)" index="186" value="1"/>
  <variable name="X(3,2,8)" index="199" value="1"/>
  <variable name="X(3,7,2)" index="205" value="1"/>
  <variable name="X(4,1,10)" index="225" value="1"/>
  <variable name="X(4,8,3)" index="230" value="1"/>
 </variables>
</CPLEXSolution>
